BAYES
441
2 2 2 2 2 2 2 2 2 2 2 2 2 2 2 2 2 2 2 2 2 2 2 2 2 2 2 2 2 2 2 2 2 2 2 2 2 2 2 2 2 2 2 2 2 2 2 2 2 2 2 2 2 2 2 2 2 2 2 2 2 2 2 2 2 2 2 2 2 2 2 2 2 2 2 2 2 2 2 2 2 2 2 2 2 2 2 2 2 2 2 2 2 2 2 2 2 2 2 2 2 2 2 2 2 2 2 2 2 2 2 2 2 2 2 2 2 2 2 2 2 2 2 2 2 2 2 2 2 2 2 2 2 2 2 2 2 2 2 2 2 2 2 2 2 2 2 2 2 2 2 2 2 2 2 2 2 2 2 2 2 2 2 2 2 2 2 2 2 2 2 2 2 2 2 2 2 2 2 2 2 2 2 2 2 2 2 2 2 2 2 2 2 2 2 2 2 2 2 2 2 2 2 2 2 2 2 2 2 2 2 2 2 2 2 2 2 2 2 2 2 2 2 2 2 2 2 2 2 2 2 2 2 2 2 2 2 2 2 2 2 2 2 2 2 2 2 2 2 2 2 2 2 2 2 2 2 2 2 2 2 2 2 2 2 2 2 2 2 2 2 2 2 2 2 2 2 2 2 2 2 2 2 2 2 2 2 2 2 2 2 2 2 2 2 2 2 2 2 2 2 2 2 2 2 2 2 2 2 2 2 2 2 2 2 2 2 2 2 2 2 2 2 2 2 2 2 2 2 2 2 2 2 2 2 2 2 2 2 2 2 2 2 2 2 2 2 2 2 2 2 2 2 2 2 2 2 2 2 2 2 2 2 2 2 2 2 2 2 2 2 2 2 2 2 2 2 2 2 2 2 2 2 2 2 2 2 2 2 2 2 2 2 2 2 2 2 2 2 2 2 2 2 2 2 2 2 2 2 2 2 2 2 2 2 2 2 2 2 2 2 2 2 2 2 2 2 2 2 2 2 2 2 2 2 2 2 2 2 2 2
441
1 0
2 0 1
2 1 2
2 2 3
2 3 4
2 4 5
2 5 6
2 6 7
2 7 8
2 8 9
2 9 10
2 10 11
2 11 12
2 12 13
2 13 14
2 14 15
2 15 16
2 16 17
2 17 18
2 18 19
2 19 20
2 0 21
3 1 21 22
3 2 22 23
3 3 23 24
3 4 24 25
3 5 25 26
3 6 26 27
3 7 27 28
3 8 28 29
3 9 29 30
3 10 30 31
3 11 31 32
3 12 32 33
3 13 33 34
3 14 34 35
3 15 35 36
3 16 36 37
3 17 37 38
3 18 38 39
3 19 39 40
3 20 40 41
2 21 42
3 22 42 43
3 23 43 44
3 24 44 45
3 25 45 46
3 26 46 47
3 27 47 48
3 28 48 49
3 29 49 50
3 30 50 51
3 31 51 52
3 32 52 53
3 33 53 54
3 34 54 55
3 35 55 56
3 36 56 57
3 37 57 58
3 38 58 59
3 39 59 60
3 40 60 61
3 41 61 62
2 42 63
3 43 63 64
3 44 64 65
3 45 65 66
3 46 66 67
3 47 67 68
3 48 68 69
3 49 69 70
3 50 70 71
3 51 71 72
3 52 72 73
3 53 73 74
3 54 74 75
3 55 75 76
3 56 76 77
3 57 77 78
3 58 78 79
3 59 79 80
3 60 80 81
3 61 81 82
3 62 82 83
2 63 84
3 64 84 85
3 65 85 86
3 66 86 87
3 67 87 88
3 68 88 89
3 69 89 90
3 70 90 91
3 71 91 92
3 72 92 93
3 73 93 94
3 74 94 95
3 75 95 96
3 76 96 97
3 77 97 98
3 78 98 99
3 79 99 100
3 80 100 101
3 81 101 102
3 82 102 103
3 83 103 104
2 84 105
3 85 105 106
3 86 106 107
3 87 107 108
3 88 108 109
3 89 109 110
3 90 110 111
3 91 111 112
3 92 112 113
3 93 113 114
3 94 114 115
3 95 115 116
3 96 116 117
3 97 117 118
3 98 118 119
3 99 119 120
3 100 120 121
3 101 121 122
3 102 122 123
3 103 123 124
3 104 124 125
2 105 126
3 106 126 127
3 107 127 128
3 108 128 129
3 109 129 130
3 110 130 131
3 111 131 132
3 112 132 133
3 113 133 134
3 114 134 135
3 115 135 136
3 116 136 137
3 117 137 138
3 118 138 139
3 119 139 140
3 120 140 141
3 121 141 142
3 122 142 143
3 123 143 144
3 124 144 145
3 125 145 146
2 126 147
3 127 147 148
3 128 148 149
3 129 149 150
3 130 150 151
3 131 151 152
3 132 152 153
3 133 153 154
3 134 154 155
3 135 155 156
3 136 156 157
3 137 157 158
3 138 158 159
3 139 159 160
3 140 160 161
3 141 161 162
3 142 162 163
3 143 163 164
3 144 164 165
3 145 165 166
3 146 166 167
2 147 168
3 148 168 169
3 149 169 170
3 150 170 171
3 151 171 172
3 152 172 173
3 153 173 174
3 154 174 175
3 155 175 176
3 156 176 177
3 157 177 178
3 158 178 179
3 159 179 180
3 160 180 181
3 161 181 182
3 162 182 183
3 163 183 184
3 164 184 185
3 165 185 186
3 166 186 187
3 167 187 188
2 168 189
3 169 189 190
3 170 190 191
3 171 191 192
3 172 192 193
3 173 193 194
3 174 194 195
3 175 195 196
3 176 196 197
3 177 197 198
3 178 198 199
3 179 199 200
3 180 200 201
3 181 201 202
3 182 202 203
3 183 203 204
3 184 204 205
3 185 205 206
3 186 206 207
3 187 207 208
3 188 208 209
2 189 210
3 190 210 211
3 191 211 212
3 192 212 213
3 193 213 214
3 194 214 215
3 195 215 216
3 196 216 217
3 197 217 218
3 198 218 219
3 199 219 220
3 200 220 221
3 201 221 222
3 202 222 223
3 203 223 224
3 204 224 225
3 205 225 226
3 206 226 227
3 207 227 228
3 208 228 229
3 209 229 230
2 210 231
3 211 231 232
3 212 232 233
3 213 233 234
3 214 234 235
3 215 235 236
3 216 236 237
3 217 237 238
3 218 238 239
3 219 239 240
3 220 240 241
3 221 241 242
3 222 242 243
3 223 243 244
3 224 244 245
3 225 245 246
3 226 246 247
3 227 247 248
3 228 248 249
3 229 249 250
3 230 250 251
2 231 252
3 232 252 253
3 233 253 254
3 234 254 255
3 235 255 256
3 236 256 257
3 237 257 258
3 238 258 259
3 239 259 260
3 240 260 261
3 241 261 262
3 242 262 263
3 243 263 264
3 244 264 265
3 245 265 266
3 246 266 267
3 247 267 268
3 248 268 269
3 249 269 270
3 250 270 271
3 251 271 272
2 252 273
3 253 273 274
3 254 274 275
3 255 275 276
3 256 276 277
3 257 277 278
3 258 278 279
3 259 279 280
3 260 280 281
3 261 281 282
3 262 282 283
3 263 283 284
3 264 284 285
3 265 285 286
3 266 286 287
3 267 287 288
3 268 288 289
3 269 289 290
3 270 290 291
3 271 291 292
3 272 292 293
2 273 294
3 274 294 295
3 275 295 296
3 276 296 297
3 277 297 298
3 278 298 299
3 279 299 300
3 280 300 301
3 281 301 302
3 282 302 303
3 283 303 304
3 284 304 305
3 285 305 306
3 286 306 307
3 287 307 308
3 288 308 309
3 289 309 310
3 290 310 311
3 291 311 312
3 292 312 313
3 293 313 314
2 294 315
3 295 315 316
3 296 316 317
3 297 317 318
3 298 318 319
3 299 319 320
3 300 320 321
3 301 321 322
3 302 322 323
3 303 323 324
3 304 324 325
3 305 325 326
3 306 326 327
3 307 327 328
3 308 328 329
3 309 329 330
3 310 330 331
3 311 331 332
3 312 332 333
3 313 333 334
3 314 334 335
2 315 336
3 316 336 337
3 317 337 338
3 318 338 339
3 319 339 340
3 320 340 341
3 321 341 342
3 322 342 343
3 323 343 344
3 324 344 345
3 325 345 346
3 326 346 347
3 327 347 348
3 328 348 349
3 329 349 350
3 330 350 351
3 331 351 352
3 332 352 353
3 333 353 354
3 334 354 355
3 335 355 356
2 336 357
3 337 357 358
3 338 358 359
3 339 359 360
3 340 360 361
3 341 361 362
3 342 362 363
3 343 363 364
3 344 364 365
3 345 365 366
3 346 366 367
3 347 367 368
3 348 368 369
3 349 369 370
3 350 370 371
3 351 371 372
3 352 372 373
3 353 373 374
3 354 374 375
3 355 375 376
3 356 376 377
2 357 378
3 358 378 379
3 359 379 380
3 360 380 381
3 361 381 382
3 362 382 383
3 363 383 384
3 364 384 385
3 365 385 386
3 366 386 387
3 367 387 388
3 368 388 389
3 369 389 390
3 370 390 391
3 371 391 392
3 372 392 393
3 373 393 394
3 374 394 395
3 375 395 396
3 376 396 397
3 377 397 398
2 378 399
3 379 399 400
3 380 400 401
3 381 401 402
3 382 402 403
3 383 403 404
3 384 404 405
3 385 405 406
3 386 406 407
3 387 407 408
3 388 408 409
3 389 409 410
3 390 410 411
3 391 411 412
3 392 412 413
3 393 413 414
3 394 414 415
3 395 415 416
3 396 416 417
3 397 417 418
3 398 418 419
2 399 420
3 400 420 421
3 401 421 422
3 402 422 423
3 403 423 424
3 404 424 425
3 405 425 426
3 406 426 427
3 407 427 428
3 408 428 429
3 409 429 430
3 410 430 431
3 411 431 432
3 412 432 433
3 413 433 434
3 414 434 435
3 415 435 436
3 416 436 437
3 417 437 438
3 418 438 439
3 419 439 440

2
0.621511 0.378489
4
0.0 1.0 1.0 0.0
4
0.0 1.0 1.0 0.0
4
0.0 1.0 1.0 0.0
4
0.676322 0.323678 0.970552 0.029448
4
0.0 1.0 1.0 0.0
4
0.956215 0.0437849 0.198133 0.801867
4
1.0 0.0 0.0 1.0
4
1.0 0.0 0.0 1.0
4
0.0 1.0 1.0 0.0
4
0.314756 0.685244 0.311103 0.688897
4
0.0 1.0 1.0 0.0
4
0.0 1.0 1.0 0.0
4
1.0 0.0 0.0 1.0
4
1.0 0.0 0.0 1.0
4
0.103308 0.896692 0.404095 0.595905
4
0.531044 0.468956 0.0986241 0.901376
4
0.207366 0.792634 0.0691761 0.930824
4
0.0 1.0 1.0 0.0
4
0.415798 0.584202 0.0343931 0.965607
4
0.0 1.0 1.0 0.0
4
0.0 1.0 1.0 0.0
8
1.0 0.0 0.0 1.0 0.0 1.0 0.0 1.0
8
0.992165 0.00783456 0.91414 0.0858598 0.713556 0.286444 0.532756 0.467244
8
1.0 0.0 0.0 1.0 1.0 0.0 0.0 1.0
8
1.0 0.0 1.0 0.0 0.0 1.0 1.0 0.0
8
0.266753 0.733247 0.622812 0.377188 0.67466 0.32534 0.104287 0.895713
8
0.0 1.0 0.0 1.0 1.0 0.0 1.0 0.0
8
0.261305 0.738695 0.913446 0.0865544 0.00370457 0.996295 0.813569 0.186431
8
0.0 1.0 0.0 1.0 1.0 0.0 1.0 0.0
8
1.0 0.0 1.0 0.0 1.0 0.0 0.0 1.0
8
0.0 1.0 1.0 0.0 0.0 1.0 0.0 1.0
8
1.0 0.0 1.0 0.0 1.0 0.0 0.0 1.0
8
1.0 0.0 0.0 1.0 1.0 0.0 0.0 1.0
8
0.0 1.0 0.0 1.0 1.0 0.0 0.0 1.0
8
0.627958 0.372042 0.172289 0.827711 0.511482 0.488518 0.966449 0.0335512
8
1.0 0.0 0.0 1.0 1.0 0.0 0.0 1.0
8
1.0 0.0 0.0 1.0 0.0 1.0 0.0 1.0
8
0.058605 0.941395 0.409965 0.590035 0.715328 0.284672 0.759522 0.240478
8
0.0 1.0 1.0 0.0 1.0 0.0 1.0 0.0
8
0.0 1.0 1.0 0.0 1.0 0.0 0.0 1.0
8
0.0 1.0 0.0 1.0 1.0 0.0 0.0 1.0
4
0.0 1.0 1.0 0.0
8
1.0 0.0 1.0 0.0 0.0 1.0 1.0 0.0
8
1.0 0.0 0.0 1.0 0.0 1.0 0.0 1.0
8
1.0 0.0 1.0 0.0 1.0 0.0 0.0 1.0
8
0.347492 0.652508 0.4316 0.5684 0.11889 0.88111 0.237015 0.762985
8
0.0 1.0 1.0 0.0 0.0 1.0 0.0 1.0
8
0.0 1.0 1.0 0.0 0.0 1.0 0.0 1.0
8
0.392299 0.607701 0.773059 0.226941 0.338625 0.661375 0.590419 0.409581
8
1.0 0.0 1.0 0.0 0.0 1.0 1.0 0.0
8
0.0119882 0.988012 0.915431 0.0845689 0.313285 0.686715 0.401972 0.598028
8
1.0 0.0 0.0 1.0 1.0 0.0 0.0 1.0
8
1.0 0.0 1.0 0.0 1.0 0.0 0.0 1.0
8
1.0 0.0 0.0 1.0 0.0 1.0 1.0 0.0
8
0.630221 0.369779 0.997452 0.00254834 0.546825 0.453175 0.968846 0.0311542
8
0.0 1.0 0.0 1.0 0.0 1.0 1.0 0.0
8
0.669154 0.330846 0.320206 0.679794 0.261376 0.738624 0.0711255 0.928874
8
0.0 1.0 1.0 0.0 0.0 1.0 0.0 1.0
8
0.382805 0.617195 0.666499 0.333501 0.648484 0.351516 0.94582 0.05418
8
0.396569 0.603431 0.603383 0.396617 0.531168 0.468832 0.00172147 0.998279
8
0.0 1.0 1.0 0.0 0.0 1.0 1.0 0.0
8
0.0 1.0 1.0 0.0 1.0 0.0 0.0 1.0
4
0.0 1.0 1.0 0.0
8
1.0 0.0 1.0 0.0 1.0 0.0 0.0 1.0
8
0.0809482 0.919052 0.0374158 0.962584 0.640034 0.359966 0.0671681 0.932832
8
0.0 1.0 1.0 0.0 1.0 0.0 1.0 0.0
8
1.0 0.0 0.0 1.0 1.0 0.0 1.0 0.0
8
0.113115 0.886885 0.270546 0.729454 0.930848 0.0691524 0.700159 0.299841
8
0.0 1.0 1.0 0.0 0.0 1.0 0.0 1.0
8
0.0 1.0 1.0 0.0 1.0 0.0 1.0 0.0
8
1.0 0.0 0.0 1.0 1.0 0.0 0.0 1.0
8
0.652815 0.347185 0.689787 0.310213 0.630467 0.369533 0.0188558 0.981144
8
0.742688 0.257312 0.98828 0.0117202 0.437065 0.562935 0.85663 0.14337
8
1.0 0.0 0.0 1.0 1.0 0.0 1.0 0.0
8
1.0 0.0 0.0 1.0 0.0 1.0 0.0 1.0
8
0.0 1.0 1.0 0.0 0.0 1.0 0.0 1.0
8
1.0 0.0 0.0 1.0 0.0 1.0 1.0 0.0
8
1.0 0.0 0.0 1.0 1.0 0.0 1.0 0.0
8
1.0 0.0 0.0 1.0 0.0 1.0 1.0 0.0
8
0.295705 0.704295 0.459215 0.540785 0.549952 0.450048 0.46423 0.53577
8
1.0 0.0 0.0 1.0 0.0 1.0 1.0 0.0
8
0.0 1.0 0.0 1.0 1.0 0.0 0.0 1.0
8
0.0 1.0 1.0 0.0 0.0 1.0 1.0 0.0
4
1.0 0.0 0.0 1.0
8
1.0 0.0 0.0 1.0 0.0 1.0 0.0 1.0
8
0.0 1.0 0.0 1.0 1.0 0.0 1.0 0.0
8
0.648746 0.351254 0.866599 0.133401 0.423697 0.576303 0.777866 0.222134
8
0.0 1.0 1.0 0.0 0.0 1.0 0.0 1.0
8
1.0 0.0 0.0 1.0 0.0 1.0 0.0 1.0
8
0.0 1.0 1.0 0.0 0.0 1.0 1.0 0.0
8
0.68988 0.31012 0.225578 0.774422 0.576477 0.423523 0.295614 0.704386
8
0.948572 0.0514282 0.959376 0.0406237 0.115171 0.884829 0.265219 0.734781
8
0.763917 0.236083 0.131819 0.868181 0.342541 0.657459 0.541783 0.458217
8
0.0 1.0 1.0 0.0 1.0 0.0 0.0 1.0
8
1.0 0.0 0.0 1.0 0.0 1.0 1.0 0.0
8
0.0 1.0 1.0 0.0 0.0 1.0 0.0 1.0
8
0.0 1.0 0.0 1.0 1.0 0.0 0.0 1.0
8
1.0 0.0 1.0 0.0 0.0 1.0 1.0 0.0
8
1.0 0.0 0.0 1.0 1.0 0.0 0.0 1.0
8
0.635279 0.364721 0.381739 0.618261 0.3935 0.6065 0.254478 0.745522
8
1.0 0.0 0.0 1.0 1.0 0.0 0.0 1.0
8
0.0 1.0 0.0 1.0 0.0 1.0 1.0 0.0
8
0.0 1.0 1.0 0.0 1.0 0.0 1.0 0.0
8
0.398962 0.601038 0.0143961 0.985604 0.962631 0.0373685 0.851745 0.148255
4
1.0 0.0 0.0 1.0
8
1.0 0.0 0.0 1.0 1.0 0.0 1.0 0.0
8
0.0 1.0 0.0 1.0 1.0 0.0 1.0 0.0
8
1.0 0.0 0.0 1.0 0.0 1.0 0.0 1.0
8
0.0 1.0 0.0 1.0 1.0 0.0 0.0 1.0
8
1.0 0.0 1.0 0.0 0.0 1.0 1.0 0.0
8
1.0 0.0 1.0 0.0 0.0 1.0 0.0 1.0
8
0.0 1.0 0.0 1.0 0.0 1.0 1.0 0.0
8
1.0 0.0 0.0 1.0 1.0 0.0 1.0 0.0
8
1.0 0.0 1.0 0.0 0.0 1.0 0.0 1.0
8
1.0 0.0 0.0 1.0 1.0 0.0 1.0 0.0
8
1.0 0.0 1.0 0.0 1.0 0.0 0.0 1.0
8
0.0 1.0 0.0 1.0 1.0 0.0 0.0 1.0
8
0.0 1.0 0.0 1.0 0.0 1.0 1.0 0.0
8
1.0 0.0 0.0 1.0 1.0 0.0 0.0 1.0
8
1.0 0.0 1.0 0.0 0.0 1.0 1.0 0.0
8
1.0 0.0 0.0 1.0 1.0 0.0 1.0 0.0
8
0.0 1.0 0.0 1.0 1.0 0.0 1.0 0.0
8
0.498175 0.501825 0.879632 0.120368 0.863864 0.136136 0.223811 0.776189
8
1.0 0.0 0.0 1.0 0.0 1.0 1.0 0.0
8
0.494088 0.505912 0.00107013 0.99893 0.837854 0.162146 0.564587 0.435413
4
1.0 0.0 0.0 1.0
8
1.0 0.0 0.0 1.0 0.0 1.0 1.0 0.0
8
0.0 1.0 0.0 1.0 0.0 1.0 1.0 0.0
8
0.0 1.0 0.0 1.0 1.0 0.0 1.0 0.0
8
0.137525 0.862475 0.982618 0.0173823 0.09809 0.90191 0.190165 0.809835
8
0.0 1.0 1.0 0.0 0.0 1.0 1.0 0.0
8
0.0 1.0 1.0 0.0 1.0 0.0 1.0 0.0
8
0.0 1.0 1.0 0.0 0.0 1.0 1.0 0.0
8
0.780532 0.219468 0.8513 0.1487 0.721806 0.278194 0.653583 0.346417
8
0.0 1.0 1.0 0.0 0.0 1.0 1.0 0.0
8
1.0 0.0 0.0 1.0 0.0 1.0 0.0 1.0
8
1.0 0.0 0.0 1.0 1.0 0.0 1.0 0.0
8
0.0 1.0 1.0 0.0 0.0 1.0 1.0 0.0
8
0.0 1.0 1.0 0.0 0.0 1.0 1.0 0.0
8
0.44923 0.55077 0.0287494 0.971251 0.777381 0.222619 0.171036 0.828964
8
0.0 1.0 1.0 0.0 1.0 0.0 1.0 0.0
8
0.0 1.0 0.0 1.0 1.0 0.0 0.0 1.0
8
1.0 0.0 1.0 0.0 0.0 1.0 1.0 0.0
8
1.0 0.0 0.0 1.0 1.0 0.0 1.0 0.0
8
1.0 0.0 0.0 1.0 1.0 0.0 0.0 1.0
8
1.0 0.0 0.0 1.0 1.0 0.0 0.0 1.0
4
1.0 0.0 0.0 1.0
8
1.0 0.0 0.0 1.0 1.0 0.0 1.0 0.0
8
0.890053 0.109947 0.881349 0.118651 0.930028 0.069972 0.461645 0.538355
8
0.0 1.0 1.0 0.0 0.0 1.0 1.0 0.0
8
0.0 1.0 0.0 1.0 1.0 0.0 1.0 0.0
8
0.499863 0.500137 0.236435 0.763565 0.140691 0.859309 0.14031 0.85969
8
0.0 1.0 0.0 1.0 0.0 1.0 1.0 0.0
8
1.0 0.0 0.0 1.0 0.0 1.0 0.0 1.0
8
1.0 0.0 1.0 0.0 0.0 1.0 1.0 0.0
8
0.360759 0.639241 0.517864 0.482136 0.470533 0.529467 0.572717 0.427283
8
0.0 1.0 1.0 0.0 0.0 1.0 0.0 1.0
8
0.0 1.0 1.0 0.0 1.0 0.0 1.0 0.0
8
1.0 0.0 0.0 1.0 0.0 1.0 0.0 1.0
8
0.0 1.0 0.0 1.0 0.0 1.0 1.0 0.0
8
0.0 1.0 0.0 1.0 0.0 1.0 1.0 0.0
8
0.0 1.0 1.0 0.0 1.0 0.0 1.0 0.0
8
1.0 0.0 1.0 0.0 0.0 1.0 0.0 1.0
8
1.0 0.0 0.0 1.0 0.0 1.0 0.0 1.0
8
1.0 0.0 1.0 0.0 0.0 1.0 1.0 0.0
8
0.566936 0.433064 0.0576085 0.942391 0.591141 0.408859 0.466038 0.533962
8
0.0 1.0 1.0 0.0 1.0 0.0 1.0 0.0
4
0.0 1.0 1.0 0.0
8
0.113617 0.886383 0.102464 0.897536 0.319745 0.680255 0.0434378 0.956562
8
0.0 1.0 1.0 0.0 1.0 0.0 1.0 0.0
8
0.569822 0.430178 0.787165 0.212835 0.596185 0.403815 0.506455 0.493545
8
0.545157 0.454843 0.658803 0.341197 0.694259 0.305741 0.112092 0.887908
8
0.0 1.0 1.0 0.0 1.0 0.0 1.0 0.0
8
0.0 1.0 1.0 0.0 0.0 1.0 1.0 0.0
8
0.0 1.0 1.0 0.0 0.0 1.0 0.0 1.0
8
0.196469 0.803531 0.875402 0.124598 0.663333 0.336667 0.707849 0.292151
8
0.233155 0.766845 0.495013 0.504987 0.411768 0.588232 0.73961 0.26039
8
1.0 0.0 0.0 1.0 1.0 0.0 1.0 0.0
8
0.0 1.0 0.0 1.0 1.0 0.0 0.0 1.0
8
0.0 1.0 1.0 0.0 1.0 0.0 1.0 0.0
8
0.0 1.0 1.0 0.0 0.0 1.0 1.0 0.0
8
0.0 1.0 1.0 0.0 0.0 1.0 0.0 1.0
8
0.191738 0.808262 0.867968 0.132032 0.37714 0.62286 0.931347 0.0686529
8
1.0 0.0 0.0 1.0 0.0 1.0 1.0 0.0
8
0.0 1.0 1.0 0.0 1.0 0.0 0.0 1.0
8
0.382213 0.617787 0.670297 0.329703 0.11792 0.88208 0.826692 0.173308
8
0.0 1.0 1.0 0.0 1.0 0.0 0.0 1.0
8
1.0 0.0 1.0 0.0 1.0 0.0 0.0 1.0
4
0.0 1.0 1.0 0.0
8
1.0 0.0 0.0 1.0 0.0 1.0 0.0 1.0
8
1.0 0.0 0.0 1.0 1.0 0.0 1.0 0.0
8
1.0 0.0 1.0 0.0 0.0 1.0 0.0 1.0
8
1.0 0.0 0.0 1.0 0.0 1.0 0.0 1.0
8
1.0 0.0 0.0 1.0 0.0 1.0 0.0 1.0
8
0.0 1.0 1.0 0.0 0.0 1.0 0.0 1.0
8
1.0 0.0 0.0 1.0 1.0 0.0 1.0 0.0
8
0.0 1.0 1.0 0.0 0.0 1.0 1.0 0.0
8
0.0990143 0.900986 0.322084 0.677916 0.393866 0.606134 0.815883 0.184117
8
1.0 0.0 0.0 1.0 1.0 0.0 1.0 0.0
8
0.0 1.0 0.0 1.0 0.0 1.0 1.0 0.0
8
1.0 0.0 1.0 0.0 1.0 0.0 0.0 1.0
8
0.0 1.0 1.0 0.0 1.0 0.0 1.0 0.0
8
1.0 0.0 0.0 1.0 1.0 0.0 0.0 1.0
8
0.433469 0.566531 0.980899 0.0191012 0.364685 0.635315 0.249352 0.750648
8
0.0 1.0 1.0 0.0 1.0 0.0 0.0 1.0
8
0.0 1.0 0.0 1.0 1.0 0.0 1.0 0.0
8
0.0 1.0 0.0 1.0 0.0 1.0 1.0 0.0
8
0.283014 0.716986 0.537921 0.462079 0.310935 0.689065 0.729928 0.270072
8
1.0 0.0 0.0 1.0 1.0 0.0 0.0 1.0
4
1.0 0.0 0.0 1.0
8
0.0 1.0 1.0 0.0 1.0 0.0 1.0 0.0
8
0.0 1.0 0.0 1.0 1.0 0.0 1.0 0.0
8
0.0 1.0 0.0 1.0 1.0 0.0 1.0 0.0
8
0.879894 0.120106 0.501054 0.498946 0.992304 0.00769572 0.767787 0.232213
8
0.530225 0.469775 0.0787226 0.921277 0.513996 0.486004 0.0129064 0.987094
8
0.174839 0.825161 0.594143 0.405857 0.175241 0.824759 0.494497 0.505503
8
0.0 1.0 1.0 0.0 0.0 1.0 1.0 0.0
8
0.0 1.0 1.0 0.0 1.0 0.0 1.0 0.0
8
1.0 0.0 0.0 1.0 1.0 0.0 0.0 1.0
8
0.0 1.0 1.0 0.0 1.0 0.0 1.0 0.0
8
1.0 0.0 0.0 1.0 1.0 0.0 1.0 0.0
8
1.0 0.0 1.0 0.0 0.0 1.0 0.0 1.0
8
0.0 1.0 1.0 0.0 0.0 1.0 1.0 0.0
8
0.116686 0.883314 0.354954 0.645046 0.843483 0.156517 0.73 0.27
8
0.120013 0.879987 0.829963 0.170037 0.254496 0.745504 0.837253 0.162747
8
0.654706 0.345294 0.434388 0.565612 0.24948 0.75052 0.0472204 0.95278
8
0.493834 0.506166 0.969959 0.0300406 0.242954 0.757046 0.252184 0.747816
8
0.646353 0.353647 0.185373 0.814627 0.435393 0.564607 0.224993 0.775007
8
0.0 1.0 1.0 0.0 0.0 1.0 0.0 1.0
8
0.721614 0.278386 0.966998 0.0330024 0.108129 0.891871 0.565097 0.434903
4
0.0 1.0 1.0 0.0
8
0.0 1.0 0.0 1.0 1.0 0.0 1.0 0.0
8
0.956751 0.0432491 0.565635 0.434365 0.83243 0.16757 0.756061 0.243939
8
1.0 0.0 1.0 0.0 0.0 1.0 0.0 1.0
8
1.0 0.0 1.0 0.0 1.0 0.0 0.0 1.0
8
1.0 0.0 0.0 1.0 0.0 1.0 1.0 0.0
8
0.0 1.0 0.0 1.0 1.0 0.0 0.0 1.0
8
0.0 1.0 1.0 0.0 0.0 1.0 0.0 1.0
8
0.0 1.0 1.0 0.0 0.0 1.0 1.0 0.0
8
0.151894 0.848106 0.548949 0.451051 0.494031 0.505969 0.797262 0.202738
8
1.0 0.0 0.0 1.0 0.0 1.0 1.0 0.0
8
0.0 1.0 1.0 0.0 0.0 1.0 1.0 0.0
8
0.0 1.0 0.0 1.0 1.0 0.0 0.0 1.0
8
0.134463 0.865537 0.378187 0.621813 0.359809 0.640191 0.746656 0.253344
8
1.0 0.0 0.0 1.0 1.0 0.0 1.0 0.0
8
1.0 0.0 0.0 1.0 0.0 1.0 1.0 0.0
8
0.756705 0.243295 0.430536 0.569464 0.526287 0.473713 0.912765 0.0872352
8
1.0 0.0 0.0 1.0 1.0 0.0 1.0 0.0
8
1.0 0.0 1.0 0.0 1.0 0.0 0.0 1.0
8
1.0 0.0 0.0 1.0 1.0 0.0 1.0 0.0
8
0.0333711 0.966629 0.318782 0.681218 0.731874 0.268126 0.195152 0.804848
4
0.0 1.0 1.0 0.0
8
0.410985 0.589015 0.651939 0.348061 0.662587 0.337413 0.841521 0.158479
8
0.0 1.0 1.0 0.0 1.0 0.0 0.0 1.0
8
0.0 1.0 1.0 0.0 0.0 1.0 1.0 0.0
8
0.0 1.0 0.0 1.0 1.0 0.0 1.0 0.0
8
1.0 0.0 1.0 0.0 0.0 1.0 0.0 1.0
8
0.0 1.0 0.0 1.0 1.0 0.0 1.0 0.0
8
1.0 0.0 1.0 0.0 1.0 0.0 0.0 1.0
8
1.0 0.0 0.0 1.0 0.0 1.0 0.0 1.0
8
1.0 0.0 0.0 1.0 1.0 0.0 1.0 0.0
8
0.0694866 0.930513 0.65836 0.34164 0.588984 0.411016 0.935816 0.0641845
8
0.0 1.0 1.0 0.0 0.0 1.0 0.0 1.0
8
1.0 0.0 0.0 1.0 1.0 0.0 0.0 1.0
8
1.0 0.0 1.0 0.0 0.0 1.0 0.0 1.0
8
1.0 0.0 1.0 0.0 1.0 0.0 0.0 1.0
8
0.0 1.0 1.0 0.0 1.0 0.0 1.0 0.0
8
0.0 1.0 1.0 0.0 0.0 1.0 1.0 0.0
8
1.0 0.0 0.0 1.0 1.0 0.0 1.0 0.0
8
0.0 1.0 1.0 0.0 0.0 1.0 0.0 1.0
8
0.558707 0.441293 0.774123 0.225877 0.563752 0.436248 0.878442 0.121558
8
0.213916 0.786084 0.307925 0.692075 0.0741093 0.925891 0.0632632 0.936737
4
1.0 0.0 0.0 1.0
8
0.0 1.0 1.0 0.0 0.0 1.0 1.0 0.0
8
0.433957 0.566043 0.0647501 0.93525 0.505265 0.494735 0.304042 0.695958
8
0.0 1.0 0.0 1.0 1.0 0.0 1.0 0.0
8
1.0 0.0 1.0 0.0 0.0 1.0 1.0 0.0
8
1.0 0.0 0.0 1.0 0.0 1.0 1.0 0.0
8
0.0 1.0 0.0 1.0 1.0 0.0 1.0 0.0
8
0.0 1.0 1.0 0.0 1.0 0.0 1.0 0.0
8
1.0 0.0 1.0 0.0 0.0 1.0 0.0 1.0
8
1.0 0.0 0.0 1.0 0.0 1.0 0.0 1.0
8
1.0 0.0 1.0 0.0 0.0 1.0 1.0 0.0
8
0.475191 0.524809 0.0492167 0.950783 0.446117 0.553883 0.900314 0.0996862
8
0.0 1.0 0.0 1.0 0.0 1.0 1.0 0.0
8
1.0 0.0 0.0 1.0 1.0 0.0 0.0 1.0
8
0.0 1.0 1.0 0.0 0.0 1.0 1.0 0.0
8
1.0 0.0 0.0 1.0 1.0 0.0 1.0 0.0
8
0.0 1.0 1.0 0.0 1.0 0.0 1.0 0.0
8
0.0 1.0 1.0 0.0 0.0 1.0 0.0 1.0
8
0.0 1.0 0.0 1.0 0.0 1.0 1.0 0.0
8
0.418145 0.581855 0.90337 0.0966296 0.121517 0.878483 0.00519659 0.994803
8
1.0 0.0 0.0 1.0 1.0 0.0 0.0 1.0
4
0.0 1.0 1.0 0.0
8
0.926685 0.0733153 0.103866 0.896134 0.248038 0.751962 0.482678 0.517322
8
1.0 0.0 0.0 1.0 0.0 1.0 1.0 0.0
8
0.0 1.0 0.0 1.0 1.0 0.0 0.0 1.0
8
0.0 1.0 0.0 1.0 1.0 0.0 1.0 0.0
8
0.0 1.0 0.0 1.0 1.0 0.0 1.0 0.0
8
0.0 1.0 1.0 0.0 1.0 0.0 0.0 1.0
8
1.0 0.0 1.0 0.0 1.0 0.0 0.0 1.0
8
0.0 1.0 0.0 1.0 0.0 1.0 1.0 0.0
8
0.0 1.0 1.0 0.0 0.0 1.0 0.0 1.0
8
0.0 1.0 1.0 0.0 0.0 1.0 0.0 1.0
8
0.619366 0.380634 0.774176 0.225824 0.550948 0.449052 0.785391 0.214609
8
1.0 0.0 0.0 1.0 0.0 1.0 1.0 0.0
8
1.0 0.0 0.0 1.0 0.0 1.0 1.0 0.0
8
0.0 1.0 1.0 0.0 1.0 0.0 1.0 0.0
8
1.0 0.0 1.0 0.0 1.0 0.0 0.0 1.0
8
0.0 1.0 0.0 1.0 1.0 0.0 0.0 1.0
8
1.0 0.0 0.0 1.0 1.0 0.0 0.0 1.0
8
1.0 0.0 1.0 0.0 0.0 1.0 1.0 0.0
8
1.0 0.0 0.0 1.0 0.0 1.0 0.0 1.0
8
0.0 1.0 0.0 1.0 0.0 1.0 1.0 0.0
4
1.0 0.0 0.0 1.0
8
1.0 0.0 1.0 0.0 0.0 1.0 1.0 0.0
8
1.0 0.0 0.0 1.0 1.0 0.0 1.0 0.0
8
0.302831 0.697169 0.15272 0.84728 0.904815 0.0951851 0.766324 0.233676
8
0.0 1.0 0.0 1.0 1.0 0.0 1.0 0.0
8
1.0 0.0 1.0 0.0 0.0 1.0 1.0 0.0
8
0.0 1.0 0.0 1.0 1.0 0.0 1.0 0.0
8
0.334304 0.665696 0.320447 0.679553 0.105056 0.894944 0.885676 0.114324
8
0.613646 0.386354 0.629456 0.370544 0.685981 0.314019 0.243883 0.756117
8
0.0 1.0 0.0 1.0 1.0 0.0 1.0 0.0
8
0.0 1.0 1.0 0.0 1.0 0.0 1.0 0.0
8
0.0 1.0 0.0 1.0 1.0 0.0 0.0 1.0
8
1.0 0.0 0.0 1.0 1.0 0.0 0.0 1.0
8
0.0 1.0 0.0 1.0 0.0 1.0 1.0 0.0
8
0.290672 0.709328 0.592026 0.407974 0.473488 0.526512 0.976653 0.0233465
8
0.658498 0.341502 0.449121 0.550879 0.382623 0.617377 0.996228 0.00377199
8
0.695661 0.304339 0.365007 0.634993 0.374743 0.625257 0.0943281 0.905672
8
1.0 0.0 0.0 1.0 0.0 1.0 0.0 1.0
8
0.740437 0.259563 0.816733 0.183267 0.428406 0.571594 0.667084 0.332916
8
1.0 0.0 1.0 0.0 1.0 0.0 0.0 1.0
8
0.0 1.0 1.0 0.0 0.0 1.0 1.0 0.0
4
0.0 1.0 1.0 0.0
8
1.0 0.0 1.0 0.0 0.0 1.0 1.0 0.0
8
1.0 0.0 0.0 1.0 0.0 1.0 1.0 0.0
8
0.0 1.0 1.0 0.0 1.0 0.0 0.0 1.0
8
1.0 0.0 0.0 1.0 1.0 0.0 0.0 1.0
8
0.248664 0.751336 0.907924 0.0920758 0.784114 0.215886 0.767451 0.232549
8
1.0 0.0 0.0 1.0 0.0 1.0 1.0 0.0
8
0.242921 0.757079 0.76627 0.23373 0.154329 0.845671 0.614309 0.385691
8
1.0 0.0 1.0 0.0 1.0 0.0 0.0 1.0
8
1.0 0.0 0.0 1.0 1.0 0.0 1.0 0.0
8
0.0 1.0 1.0 0.0 0.0 1.0 1.0 0.0
8
0.0 1.0 1.0 0.0 0.0 1.0 0.0 1.0
8
1.0 0.0 0.0 1.0 1.0 0.0 0.0 1.0
8
1.0 0.0 0.0 1.0 0.0 1.0 1.0 0.0
8
1.0 0.0 0.0 1.0 0.0 1.0 1.0 0.0
8
1.0 0.0 0.0 1.0 0.0 1.0 0.0 1.0
8
0.966648 0.0333519 0.0321922 0.967808 0.312961 0.687039 0.105147 0.894853
8
1.0 0.0 0.0 1.0 1.0 0.0 1.0 0.0
8
0.0 1.0 1.0 0.0 1.0 0.0 1.0 0.0
8
0.0 1.0 1.0 0.0 1.0 0.0 1.0 0.0
8
1.0 0.0 0.0 1.0 1.0 0.0 0.0 1.0
4
0.0 1.0 1.0 0.0
8
1.0 0.0 0.0 1.0 0.0 1.0 0.0 1.0
8
0.657003 0.342997 0.0147026 0.985297 0.974205 0.0257955 0.235417 0.764583
8
0.125775 0.874225 0.144167 0.855833 0.314763 0.685237 0.474867 0.525133
8
0.0 1.0 0.0 1.0 1.0 0.0 0.0 1.0
8
0.0 1.0 1.0 0.0 0.0 1.0 1.0 0.0
8
0.0 1.0 1.0 0.0 0.0 1.0 1.0 0.0
8
1.0 0.0 0.0 1.0 1.0 0.0 1.0 0.0
8
1.0 0.0 1.0 0.0 1.0 0.0 0.0 1.0
8
0.0 1.0 1.0 0.0 1.0 0.0 0.0 1.0
8
1.0 0.0 0.0 1.0 0.0 1.0 1.0 0.0
8
1.0 0.0 1.0 0.0 1.0 0.0 0.0 1.0
8
0.885352 0.114648 0.830475 0.169525 0.224123 0.775877 0.588829 0.411171
8
1.0 0.0 1.0 0.0 1.0 0.0 0.0 1.0
8
1.0 0.0 0.0 1.0 0.0 1.0 0.0 1.0
8
0.603307 0.396693 0.150733 0.849267 0.116289 0.883711 0.0768957 0.923104
8
1.0 0.0 0.0 1.0 1.0 0.0 1.0 0.0
8
0.0 1.0 0.0 1.0 0.0 1.0 1.0 0.0
8
0.0 1.0 1.0 0.0 0.0 1.0 0.0 1.0
8
0.329677 0.670323 0.649834 0.350166 0.856552 0.143448 0.301375 0.698625
8
0.178462 0.821538 0.11627 0.88373 0.343196 0.656804 0.851896 0.148104
4
1.0 0.0 0.0 1.0
8
1.0 0.0 1.0 0.0 1.0 0.0 0.0 1.0
8
1.0 0.0 1.0 0.0 0.0 1.0 1.0 0.0
8
1.0 0.0 0.0 1.0 1.0 0.0 1.0 0.0
8
0.0 1.0 0.0 1.0 0.0 1.0 1.0 0.0
8
0.0226191 0.977381 0.678456 0.321544 0.0636415 0.936358 0.138889 0.861111
8
0.0 1.0 1.0 0.0 1.0 0.0 1.0 0.0
8
0.0 1.0 1.0 0.0 0.0 1.0 0.0 1.0
8
1.0 0.0 1.0 0.0 1.0 0.0 0.0 1.0
8
0.0 1.0 0.0 1.0 1.0 0.0 0.0 1.0
8
0.0 1.0 0.0 1.0 0.0 1.0 1.0 0.0
8
0.150524 0.849476 0.212097 0.787903 0.972312 0.0276876 0.289413 0.710587
8
0.0 1.0 0.0 1.0 0.0 1.0 1.0 0.0
8
1.0 0.0 0.0 1.0 0.0 1.0 1.0 0.0
8
0.0545859 0.945414 0.346818 0.653182 0.42414 0.57586 0.291753 0.708247
8
1.0 0.0 0.0 1.0 0.0 1.0 0.0 1.0
8
0.877967 0.122033 0.188307 0.811693 0.0641745 0.935825 0.411607 0.588393
8
0.0 1.0 0.0 1.0 0.0 1.0 1.0 0.0
8
0.95714 0.04286 0.94219 0.0578098 0.0593557 0.940644 0.763157 0.236843
8
1.0 0.0 0.0 1.0 1.0 0.0 0.0 1.0
8
1.0 0.0 0.0 1.0 0.0 1.0 0.0 1.0
4
0.420324 0.579676 0.984585 0.015415
8
0.0 1.0 0.0 1.0 1.0 0.0 0.0 1.0
8
0.0 1.0 1.0 0.0 1.0 0.0 1.0 0.0
8
1.0 0.0 0.0 1.0 1.0 0.0 1.0 0.0
8
1.0 0.0 1.0 0.0 0.0 1.0 1.0 0.0
8
0.0 1.0 1.0 0.0 1.0 0.0 1.0 0.0
8
0.0 1.0 0.0 1.0 1.0 0.0 0.0 1.0
8
0.0 1.0 1.0 0.0 1.0 0.0 0.0 1.0
8
0.700666 0.299334 0.454539 0.545461 0.378857 0.621143 0.266032 0.733968
8
0.882833 0.117167 0.335509 0.664491 0.227331 0.772669 0.343948 0.656052
8
0.0 1.0 1.0 0.0 1.0 0.0 0.0 1.0
8
0.0 1.0 1.0 0.0 1.0 0.0 1.0 0.0
8
0.0 1.0 1.0 0.0 0.0 1.0 0.0 1.0
8
1.0 0.0 0.0 1.0 1.0 0.0 0.0 1.0
8
1.0 0.0 1.0 0.0 0.0 1.0 0.0 1.0
8
0.771471 0.228529 0.548526 0.451474 0.137331 0.862669 0.998802 0.00119838
8
0.484508 0.515492 0.60061 0.39939 0.460695 0.539305 0.498355 0.501645
8
0.846055 0.153945 0.647166 0.352834 0.645377 0.354623 0.544666 0.455334
8
0.0 1.0 1.0 0.0 0.0 1.0 0.0 1.0
8
0.0 1.0 0.0 1.0 1.0 0.0 1.0 0.0
8
1.0 0.0 0.0 1.0 1.0 0.0 0.0 1.0
4
0.433191 0.566809 0.882315 0.117685
8
0.0 1.0 1.0 0.0 0.0 1.0 0.0 1.0
8
0.0 1.0 0.0 1.0 1.0 0.0 1.0 0.0
8
0.0 1.0 1.0 0.0 0.0 1.0 0.0 1.0
8
1.0 0.0 0.0 1.0 1.0 0.0 1.0 0.0
8
1.0 0.0 1.0 0.0 0.0 1.0 1.0 0.0
8
0.0 1.0 0.0 1.0 1.0 0.0 1.0 0.0
8
0.0769755 0.923024 0.568972 0.431028 0.049566 0.950434 0.132006 0.867994
8
1.0 0.0 0.0 1.0 1.0 0.0 0.0 1.0
8
0.318946 0.681054 0.284491 0.715509 0.540319 0.459681 0.629472 0.370528
8
0.927654 0.0723465 0.715329 0.284671 0.414294 0.585706 0.784147 0.215853
8
0.0 1.0 0.0 1.0 1.0 0.0 1.0 0.0
8
0.0 1.0 1.0 0.0 1.0 0.0 0.0 1.0
8
1.0 0.0 0.0 1.0 0.0 1.0 0.0 1.0
8
1.0 0.0 1.0 0.0 0.0 1.0 0.0 1.0
8
0.346257 0.653743 0.872378 0.127622 0.403886 0.596114 0.975728 0.0242717
8
1.0 0.0 0.0 1.0 1.0 0.0 0.0 1.0
8
0.96212 0.0378799 0.568152 0.431848 0.256235 0.743765 0.514227 0.485773
8
0.833033 0.166967 0.871876 0.128124 0.538368 0.461632 0.916284 0.0837162
8
0.133353 0.866647 0.0765101 0.92349 0.531858 0.468142 0.777904 0.222096
8
0.0 1.0 1.0 0.0 0.0 1.0 0.0 1.0